SCIP version 5.0.0 [precision: 8 byte] [memory: block] [mode: optimized] [LP solver: NONE] [GitHash: 3bbd232]
Copyright (C) 2002-2017 Konrad-Zuse-Zentrum fuer Informationstechnik Berlin (ZIB)

External codes: 
  Readline EditLine w  GNU library for command line editing (gnu.org/s/readline)
  CppAD 20160000.1     Algorithmic Differentiation of C++ algorithms developed by B. Bell (www.coin-or.org/CppAD)
  ZLIB 1.2.5           General purpose compression library by J. Gailly and M. Adler (zlib.net)
  GMP 6.1.2            GNU Multiple Precision Arithmetic Library developed by T. Granlund (gmplib.org)

user parameter file <scip.set> not found - using default parameters

read problem <../../Split_data/output/biodeg/0/3_sample_biodeg.logreg>
============

File name	:	../../Split_data/output/biodeg/0/3_sample_biodeg.logreg
Problem name 	:	3_sample_biodeg
Number of data	:	844
Number of var	:	41
The given data has linear independence

[dim=1] time: 0.030783
[dim=2] time: 0.069527
[dim=3] time: 0.103388
[dim=4] time: 0.147771
[dim=5] time: 0.177646
[dim=6] time: 0.206044
[dim=7] time: 0.235128
[dim=8] time: 0.262284
[dim=9] time: 0.288301
[dim=10] time: 0.315686
[dim=11] time: 0.346114
[dim=12] time: 0.371495
[dim=13] time: 0.401656
[dim=14] time: 0.427701
[dim=15] time: 0.458338
[dim=16] time: 0.47672
[dim=17] time: 0.496784
[dim=18] time: 0.512836
[dim=19] time: 0.529346
[dim=20] time: 0.550122
[dim=21] Time of forward = 0.565839sec.
AIC: 531.247
k: 20

[dim=41] time: 0.147075
[dim=40] time: 0.196722
[dim=39] time: 0.250005
[dim=38] time: 0.29993
[dim=37] time: 0.337285
[dim=36] time: 0.380235
[dim=35] time: 0.428368
[dim=34] time: 0.492772
[dim=33] time: 0.568603
[dim=32] time: 0.610691
[dim=31] time: 0.647887
[dim=30] time: 0.682167
[dim=29] time: 0.723486
[dim=28] time: 0.755856
[dim=27] time: 0.788169
[dim=26] time: 0.845609
[dim=25] time: 0.869712
[dim=24] time: 0.894704
[dim=23] time: 0.922027
[dim=22] time: 0.950793
[dim=21] time: 0.972838
[dim=20] time: 0.993155
[dim=19] Time of backward = 1.02032sec.
AIC: 525.828
k: 20
